param:	TIME:	Ts	Te:=
1	0   108
2	108   216
3	216   324
4	324   432
5	432   540
;
param:	NODE:	r	st	WS	WE:=
0	0	0	0	540
1	1458	16	79	406
2	2046	23	35	372
3	1599	18	88	426
4	1668	19	82	407
5	771	9	33	360
6	681	8	45	369
7	384	4	65	397
8	1095	12	16	334
9	378	4	89	425
10	1212	13	55	370
;
param: VEHICLE:	Ch	Lh	Ph	ch:=
1	10000	150	2.2384e-005	2.66374
2	15000	200	1.79961e-005	2.66374
;
param q_real:=2;
param	nth:=9;
param	nth1:=10;
param:	ARC:	D:=
1	8	31.900000
1	5	36.209999
1	9	48.520000
1	3	87.260002
1	2	111.120003
1	7	117.129997
1	6	121.430000
1	10	143.929993
1	4	144.889999
2	7	19.410000
2	3	24.450001
2	10	31.280001
2	6	37.549999
2	4	40.740002
2	5	90.519997
2	9	94.000000
2	8	104.080002
2	1	110.959999
3	2	24.430000
3	7	32.360001
3	6	38.889999
3	10	61.330002
3	4	63.160000
3	5	69.540001
3	9	75.349998
3	8	86.089996
3	1	87.480003
4	10	10.200000
4	6	25.629999
4	2	40.599998
4	7	48.639999
4	3	63.060001
4	9	110.589996
4	5	112.580002
4	1	144.869995
4	8	147.369995
5	9	14.600000
5	1	36.250000
5	8	57.980000
5	3	69.459999
5	7	84.720001
5	6	89.019997
5	2	90.440002
5	10	111.459999
5	4	112.419998
6	10	23.450001
6	7	24.379999
6	4	25.670000
6	2	37.000000
6	3	38.799999
6	5	89.370003
6	9	92.849998
6	1	121.660004
6	8	123.110001
7	2	19.200001
7	6	24.270000
7	3	33.009998
7	10	46.709999
7	4	48.540001
7	5	84.970001
7	9	88.449997
7	1	117.260002
7	8	117.320000
8	1	31.750000
8	5	58.090000
8	9	71.629997
8	3	85.599998
8	2	104.250000
8	7	117.220001
8	6	123.139999
8	10	145.580002
8	4	147.410004
9	5	14.320000
9	1	48.759998
9	8	71.820000
9	3	75.489998
9	7	88.180000
9	6	92.480003
9	2	93.900002
9	4	110.919998
9	10	114.919998
10	4	10.470000
10	6	23.330000
10	2	31.290001
10	7	46.730000
10	3	61.160000
10	5	111.720001
10	9	115.199997
10	1	144.009995
10	8	145.460007
0	3	35.709999
0	2	45.209999
0	7	63.130001
0	6	72.419998
0	8	73.769997
0	10	75.300003
0	5	88.820000
0	1	90.760002
0	9	95.389999
0	4	96.690002
3	0	35.380001
2	0	44.959999
7	0	62.799999
6	0	72.970001
8	0	74.110001
10	0	75.089996
5	0	88.709999
1	0	90.739998
9	0	95.349998
4	0	97.230003
;
param:	v:=
1	8	1	97
1	8	2	32
1	8	3	25
1	8	4	44
1	8	5	90
1	5	1	84
1	5	2	58
1	5	3	21
1	5	4	35
1	5	5	78
1	9	1	86
1	9	2	44
1	9	3	30
1	9	4	51
1	9	5	79
1	3	1	79
1	3	2	51
1	3	3	10
1	3	4	36
1	3	5	77
1	2	1	70
1	2	2	51
1	2	3	11
1	2	4	30
1	2	5	73
1	7	1	95
1	7	2	46
1	7	3	26
1	7	4	46
1	7	5	75
1	6	1	79
1	6	2	43
1	6	3	15
1	6	4	34
1	6	5	72
1	10	1	79
1	10	2	44
1	10	3	25
1	10	4	34
1	10	5	92
1	4	1	94
1	4	2	40
1	4	3	29
1	4	4	59
1	4	5	82
2	7	1	73
2	7	2	56
2	7	3	13
2	7	4	41
2	7	5	84
2	3	1	74
2	3	2	50
2	3	3	27
2	3	4	48
2	3	5	95
2	10	1	70
2	10	2	45
2	10	3	30
2	10	4	51
2	10	5	81
2	6	1	85
2	6	2	48
2	6	3	13
2	6	4	38
2	6	5	100
2	4	1	93
2	4	2	39
2	4	3	26
2	4	4	42
2	4	5	99
2	5	1	75
2	5	2	43
2	5	3	24
2	5	4	32
2	5	5	74
2	9	1	94
2	9	2	52
2	9	3	28
2	9	4	58
2	9	5	73
2	8	1	99
2	8	2	46
2	8	3	12
2	8	4	39
2	8	5	99
2	1	1	80
2	1	2	36
2	1	3	23
2	1	4	33
2	1	5	78
3	2	1	89
3	2	2	55
3	2	3	23
3	2	4	41
3	2	5	76
3	7	1	79
3	7	2	55
3	7	3	13
3	7	4	51
3	7	5	93
3	6	1	92
3	6	2	39
3	6	3	30
3	6	4	46
3	6	5	77
3	10	1	81
3	10	2	55
3	10	3	11
3	10	4	34
3	10	5	76
3	4	1	77
3	4	2	55
3	4	3	11
3	4	4	44
3	4	5	86
3	5	1	84
3	5	2	51
3	5	3	16
3	5	4	33
3	5	5	75
3	9	1	80
3	9	2	54
3	9	3	29
3	9	4	39
3	9	5	93
3	8	1	76
3	8	2	32
3	8	3	27
3	8	4	49
3	8	5	73
3	1	1	97
3	1	2	37
3	1	3	29
3	1	4	50
3	1	5	93
4	10	1	83
4	10	2	49
4	10	3	15
4	10	4	41
4	10	5	86
4	6	1	78
4	6	2	35
4	6	3	30
4	6	4	59
4	6	5	82
4	2	1	80
4	2	2	51
4	2	3	12
4	2	4	48
4	2	5	76
4	7	1	95
4	7	2	40
4	7	3	27
4	7	4	54
4	7	5	100
4	3	1	100
4	3	2	56
4	3	3	10
4	3	4	44
4	3	5	99
4	9	1	81
4	9	2	30
4	9	3	29
4	9	4	44
4	9	5	99
4	5	1	88
4	5	2	44
4	5	3	24
4	5	4	41
4	5	5	99
4	1	1	75
4	1	2	59
4	1	3	19
4	1	4	47
4	1	5	82
4	8	1	80
4	8	2	38
4	8	3	29
4	8	4	39
4	8	5	70
5	9	1	73
5	9	2	52
5	9	3	25
5	9	4	45
5	9	5	98
5	1	1	76
5	1	2	59
5	1	3	18
5	1	4	39
5	1	5	81
5	8	1	92
5	8	2	36
5	8	3	19
5	8	4	44
5	8	5	71
5	3	1	93
5	3	2	45
5	3	3	16
5	3	4	32
5	3	5	94
5	7	1	82
5	7	2	49
5	7	3	12
5	7	4	51
5	7	5	70
5	6	1	91
5	6	2	46
5	6	3	17
5	6	4	50
5	6	5	76
5	2	1	81
5	2	2	34
5	2	3	20
5	2	4	56
5	2	5	91
5	10	1	93
5	10	2	52
5	10	3	22
5	10	4	42
5	10	5	93
5	4	1	87
5	4	2	55
5	4	3	23
5	4	4	42
5	4	5	70
6	10	1	96
6	10	2	60
6	10	3	23
6	10	4	55
6	10	5	87
6	7	1	97
6	7	2	39
6	7	3	10
6	7	4	39
6	7	5	86
6	4	1	89
6	4	2	42
6	4	3	16
6	4	4	36
6	4	5	92
6	2	1	89
6	2	2	32
6	2	3	20
6	2	4	58
6	2	5	84
6	3	1	84
6	3	2	46
6	3	3	27
6	3	4	38
6	3	5	99
6	5	1	96
6	5	2	60
6	5	3	20
6	5	4	48
6	5	5	82
6	9	1	86
6	9	2	58
6	9	3	30
6	9	4	50
6	9	5	90
6	1	1	95
6	1	2	58
6	1	3	23
6	1	4	47
6	1	5	89
6	8	1	94
6	8	2	35
6	8	3	17
6	8	4	51
6	8	5	84
7	2	1	85
7	2	2	57
7	2	3	27
7	2	4	48
7	2	5	100
7	6	1	92
7	6	2	51
7	6	3	15
7	6	4	33
7	6	5	92
7	3	1	72
7	3	2	47
7	3	3	19
7	3	4	40
7	3	5	96
7	10	1	78
7	10	2	50
7	10	3	10
7	10	4	33
7	10	5	86
7	4	1	99
7	4	2	44
7	4	3	29
7	4	4	31
7	4	5	83
7	5	1	77
7	5	2	34
7	5	3	21
7	5	4	43
7	5	5	82
7	9	1	85
7	9	2	39
7	9	3	30
7	9	4	51
7	9	5	94
7	1	1	74
7	1	2	54
7	1	3	29
7	1	4	53
7	1	5	75
7	8	1	70
7	8	2	55
7	8	3	25
7	8	4	40
7	8	5	95
8	1	1	74
8	1	2	53
8	1	3	23
8	1	4	54
8	1	5	100
8	5	1	74
8	5	2	57
8	5	3	11
8	5	4	37
8	5	5	97
8	9	1	93
8	9	2	58
8	9	3	11
8	9	4	39
8	9	5	72
8	3	1	99
8	3	2	54
8	3	3	21
8	3	4	54
8	3	5	81
8	2	1	73
8	2	2	57
8	2	3	29
8	2	4	40
8	2	5	99
8	7	1	77
8	7	2	43
8	7	3	23
8	7	4	59
8	7	5	77
8	6	1	76
8	6	2	31
8	6	3	11
8	6	4	34
8	6	5	97
8	10	1	96
8	10	2	59
8	10	3	16
8	10	4	48
8	10	5	81
8	4	1	92
8	4	2	52
8	4	3	22
8	4	4	30
8	4	5	70
9	5	1	98
9	5	2	51
9	5	3	28
9	5	4	44
9	5	5	85
9	1	1	98
9	1	2	59
9	1	3	18
9	1	4	31
9	1	5	89
9	8	1	91
9	8	2	53
9	8	3	15
9	8	4	50
9	8	5	71
9	3	1	87
9	3	2	35
9	3	3	23
9	3	4	60
9	3	5	79
9	7	1	76
9	7	2	33
9	7	3	13
9	7	4	48
9	7	5	80
9	6	1	74
9	6	2	48
9	6	3	23
9	6	4	30
9	6	5	93
9	2	1	94
9	2	2	50
9	2	3	11
9	2	4	51
9	2	5	98
9	4	1	72
9	4	2	58
9	4	3	22
9	4	4	57
9	4	5	99
9	10	1	89
9	10	2	60
9	10	3	15
9	10	4	36
9	10	5	89
10	4	1	74
10	4	2	51
10	4	3	10
10	4	4	37
10	4	5	88
10	6	1	96
10	6	2	46
10	6	3	11
10	6	4	37
10	6	5	84
10	2	1	100
10	2	2	45
10	2	3	29
10	2	4	32
10	2	5	73
10	7	1	91
10	7	2	36
10	7	3	28
10	7	4	45
10	7	5	94
10	3	1	94
10	3	2	48
10	3	3	26
10	3	4	32
10	3	5	83
10	5	1	84
10	5	2	51
10	5	3	21
10	5	4	43
10	5	5	98
10	9	1	86
10	9	2	32
10	9	3	13
10	9	4	47
10	9	5	80
10	1	1	74
10	1	2	33
10	1	3	30
10	1	4	37
10	1	5	83
10	8	1	70
10	8	2	49
10	8	3	11
10	8	4	54
10	8	5	96
0	3	1	79
0	3	2	59
0	3	3	26
0	3	4	59
0	3	5	99
0	2	1	100
0	2	2	52
0	2	3	20
0	2	4	52
0	2	5	72
0	7	1	75
0	7	2	37
0	7	3	30
0	7	4	50
0	7	5	99
0	6	1	93
0	6	2	52
0	6	3	13
0	6	4	46
0	6	5	98
0	8	1	84
0	8	2	46
0	8	3	21
0	8	4	52
0	8	5	96
0	10	1	83
0	10	2	37
0	10	3	27
0	10	4	53
0	10	5	82
0	5	1	72
0	5	2	55
0	5	3	25
0	5	4	52
0	5	5	91
0	1	1	85
0	1	2	48
0	1	3	28
0	1	4	39
0	1	5	77
0	9	1	85
0	9	2	38
0	9	3	13
0	9	4	46
0	9	5	91
0	4	1	75
0	4	2	54
0	4	3	23
0	4	4	31
0	4	5	97
3	0	1	86
3	0	2	37
3	0	3	16
3	0	4	33
3	0	5	89
2	0	1	94
2	0	2	33
2	0	3	24
2	0	4	46
2	0	5	95
7	0	1	90
7	0	2	57
7	0	3	25
7	0	4	45
7	0	5	76
6	0	1	85
6	0	2	38
6	0	3	12
6	0	4	58
6	0	5	90
8	0	1	90
8	0	2	60
8	0	3	10
8	0	4	59
8	0	5	75
10	0	1	96
10	0	2	32
10	0	3	19
10	0	4	32
10	0	5	78
5	0	1	98
5	0	2	36
5	0	3	17
5	0	4	51
5	0	5	96
1	0	1	80
1	0	2	37
1	0	3	13
1	0	4	54
1	0	5	100
9	0	1	83
9	0	2	40
9	0	3	12
9	0	4	36
9	0	5	87
4	0	1	92
4	0	2	47
4	0	3	15
4	0	4	39
4	0	5	87
;
param:	g:=
1	8	1	1	0.551002
1	8	1	2	1.234039
1	8	2	1	0.246870
1	8	2	2	0.290921
1	8	3	1	0.260803
1	8	3	2	0.317588
1	8	4	1	0.257070
1	8	4	2	0.306247
1	8	5	1	0.494484
1	8	5	2	1.032048
1	5	1	1	0.449973
1	5	1	2	0.878115
1	5	2	1	0.301833
1	5	2	2	0.416205
1	5	3	1	0.280358
1	5	3	2	0.346196
1	5	4	1	0.246187
1	5	4	2	0.287745
1	5	5	1	0.409180
1	5	5	2	0.741915
1	9	1	1	0.464402
1	9	1	2	0.927456
1	9	2	1	0.257070
1	9	2	2	0.306247
1	9	3	1	0.248870
1	9	3	2	0.295725
1	9	4	1	0.275847
1	9	4	2	0.348998
1	9	5	1	0.415716
1	9	5	2	0.763383
1	3	1	1	0.415716
1	3	1	2	0.763383
1	3	2	1	0.275847
1	3	2	2	0.348998
1	3	3	1	0.456768
1	3	3	2	0.513825
1	3	4	1	0.246504
1	3	4	2	0.287741
1	3	5	1	0.402749
1	3	5	2	0.720940
1	2	1	1	0.360770
1	2	1	2	0.587924
1	2	2	1	0.275847
1	2	2	2	0.348998
1	2	3	1	0.424417
1	2	3	2	0.487653
1	2	4	1	0.248870
1	2	4	2	0.295725
1	2	5	1	0.378104
1	2	5	2	0.641971
1	7	1	1	0.534355
1	7	1	2	1.173866
1	7	2	1	0.261626
1	7	2	2	0.315953
1	7	3	1	0.257483
1	7	3	2	0.312044
1	7	4	1	0.261626
1	7	4	2	0.315953
1	7	5	1	0.390210
1	7	5	2	0.680469
1	6	1	1	0.415716
1	6	1	2	0.763383
1	6	2	1	0.255055
1	6	2	2	0.302151
1	6	3	1	0.340328
1	6	3	2	0.413505
1	6	4	1	0.246131
1	6	4	2	0.288274
1	6	5	1	0.372215
1	6	5	2	0.623462
1	10	1	1	0.415716
1	10	1	2	0.763383
1	10	2	1	0.257070
1	10	2	2	0.306247
1	10	3	1	0.260803
1	10	3	2	0.317588
1	10	4	1	0.246131
1	10	4	2	0.288274
1	10	5	1	0.510132
1	10	5	2	1.087298
1	4	1	1	0.526181
1	4	1	2	1.144518
1	4	2	1	0.250135
1	4	2	2	0.292905
1	4	3	1	0.250401
1	4	3	2	0.298951
1	4	4	1	0.306076
1	4	4	2	0.427793
1	4	5	1	0.435957
1	4	5	2	0.830744
2	7	1	1	0.378104
2	7	1	2	0.641971
2	7	2	1	0.293733
2	7	2	2	0.394518
2	7	3	1	0.375359
2	7	3	2	0.446007
2	7	4	1	0.251580
2	7	4	2	0.295478
2	7	5	1	0.449973
2	7	5	2	0.878115
2	3	1	1	0.384103
2	3	1	2	0.660973
2	3	2	1	0.272696
2	3	2	2	0.341388
2	3	3	1	0.254672
2	3	3	2	0.307099
2	3	4	1	0.266846
2	3	4	2	0.327669
2	3	5	1	0.534355
2	3	5	2	1.173866
2	10	1	1	0.360770
2	10	1	2	0.587924
2	10	2	1	0.259262
2	10	2	2	0.310848
2	10	3	1	0.248870
2	10	3	2	0.295725
2	10	4	1	0.275847
2	10	4	2	0.348998
2	10	5	1	0.429105
2	10	5	2	0.807797
2	6	1	1	0.457136
2	6	1	2	0.902539
2	6	2	1	0.266846
2	6	2	2	0.327669
2	6	3	1	0.375359
2	6	3	2	0.446007
2	6	4	1	0.247870
2	6	4	2	0.289292
2	6	5	1	0.576712
2	6	5	2	1.327989
2	4	1	1	0.518107
2	4	1	2	1.115662
2	4	2	1	0.248895
2	4	2	2	0.290842
2	4	3	1	0.257483
2	4	3	2	0.312044
2	4	4	1	0.253223
2	4	4	2	0.298561
2	4	5	1	0.568043
2	4	5	2	1.296180
2	5	1	1	0.390210
2	5	1	2	0.680469
2	5	2	1	0.255055
2	5	2	2	0.302151
2	5	3	1	0.264683
2	5	3	2	0.323750
2	5	4	1	0.246870
2	5	4	2	0.290921
2	5	5	1	0.384103
2	5	5	2	0.660973
2	9	1	1	0.526181
2	9	1	2	1.144518
2	9	2	1	0.279143
2	9	2	2	0.357106
2	9	3	1	0.252324
2	9	3	2	0.302739
2	9	4	1	0.301833
2	9	4	2	0.416205
2	9	5	1	0.378104
2	9	5	2	0.641971
2	8	1	1	0.568043
2	8	1	2	1.296180
2	8	2	1	0.261626
2	8	2	2	0.315953
2	8	3	1	0.397708
2	8	3	2	0.465383
2	8	4	1	0.248895
2	8	4	2	0.290842
2	8	5	1	0.568043
2	8	5	2	1.296180
2	1	1	1	0.422358
2	1	1	2	0.785344
2	1	2	1	0.246504
2	1	2	2	0.287741
2	1	3	1	0.269185
2	1	3	2	0.330552
2	1	4	1	0.246353
2	1	4	2	0.289331
2	1	5	1	0.409180
2	1	5	2	0.741915
3	2	1	1	0.486811
3	2	1	2	1.005161
3	2	2	1	0.289880
3	2	2	2	0.384419
3	2	3	1	0.269185
3	2	3	2	0.330552
3	2	4	1	0.251580
3	2	4	2	0.295478
3	2	5	1	0.396426
3	2	5	2	0.700458
3	7	1	1	0.415716
3	7	1	2	0.763383
3	7	2	1	0.289880
3	7	2	2	0.384419
3	7	3	1	0.375359
3	7	3	2	0.446007
3	7	4	1	0.275847
3	7	4	2	0.348998
3	7	5	1	0.518107
3	7	5	2	1.115662
3	6	1	1	0.510132
3	6	1	2	1.087298
3	6	2	1	0.248895
3	6	2	2	0.290842
3	6	3	1	0.248870
3	6	3	2	0.295725
3	6	4	1	0.261626
3	6	4	2	0.315953
3	6	5	1	0.402749
3	6	5	2	0.720940
3	10	1	1	0.429105
3	10	1	2	0.807797
3	10	2	1	0.289880
3	10	2	2	0.384419
3	10	3	1	0.424417
3	10	3	2	0.487653
3	10	4	1	0.246131
3	10	4	2	0.288274
3	10	5	1	0.396426
3	10	5	2	0.700458
3	4	1	1	0.402749
3	4	1	2	0.720940
3	4	2	1	0.289880
3	4	2	2	0.384419
3	4	3	1	0.424417
3	4	3	2	0.487653
3	4	4	1	0.257070
3	4	4	2	0.306247
3	4	5	1	0.464402
3	4	5	2	0.927456
3	5	1	1	0.449973
3	5	1	2	0.878115
3	5	2	1	0.275847
3	5	2	2	0.348998
3	5	3	1	0.326472
3	5	3	2	0.399619
3	5	4	1	0.246353
3	5	4	2	0.289331
3	5	5	1	0.390210
3	5	5	2	0.680469
3	9	1	1	0.422358
3	9	1	2	0.785344
3	9	2	1	0.286163
3	9	2	2	0.374817
3	9	3	1	0.250401
3	9	3	2	0.298951
3	9	4	1	0.248895
3	9	4	2	0.290842
3	9	5	1	0.518107
3	9	5	2	1.115662
3	8	1	1	0.396426
3	8	1	2	0.700458
3	8	2	1	0.246870
3	8	2	2	0.290921
3	8	3	1	0.254672
3	8	3	2	0.307099
3	8	4	1	0.269695
3	8	4	2	0.334278
3	8	5	1	0.378104
3	8	5	2	0.641971
3	1	1	1	0.551002
3	1	1	2	1.234039
3	1	2	1	0.247069
3	1	2	2	0.288257
3	1	3	1	0.250401
3	1	3	2	0.298951
3	1	4	1	0.272696
3	1	4	2	0.341388
3	1	5	1	0.518107
3	1	5	2	1.115662
4	10	1	1	0.442913
4	10	1	2	0.854183
4	10	2	1	0.269695
4	10	2	2	0.334278
4	10	3	1	0.340328
4	10	3	2	0.413505
4	10	4	1	0.251580
4	10	4	2	0.295478
4	10	5	1	0.464402
4	10	5	2	0.927456
4	6	1	1	0.409180
4	6	1	2	0.741915
4	6	2	1	0.246187
4	6	2	2	0.287745
4	6	3	1	0.248870
4	6	3	2	0.295725
4	6	4	1	0.306076
4	6	4	2	0.427793
4	6	5	1	0.435957
4	6	5	2	0.830744
4	2	1	1	0.422358
4	2	1	2	0.785344
4	2	2	1	0.275847
4	2	2	2	0.348998
4	2	3	1	0.397708
4	2	3	2	0.465383
4	2	4	1	0.266846
4	2	4	2	0.327669
4	2	5	1	0.396426
4	2	5	2	0.700458
4	7	1	1	0.534355
4	7	1	2	1.173866
4	7	2	1	0.250135
4	7	2	2	0.292905
4	7	3	1	0.254672
4	7	3	2	0.307099
4	7	4	1	0.286163
4	7	4	2	0.374817
4	7	5	1	0.576712
4	7	5	2	1.327989
4	3	1	1	0.576712
4	3	1	2	1.327989
4	3	2	1	0.293733
4	3	2	2	0.394518
4	3	3	1	0.456768
4	3	3	2	0.513825
4	3	4	1	0.257070
4	3	4	2	0.306247
4	3	5	1	0.568043
4	3	5	2	1.296180
4	9	1	1	0.429105
4	9	1	2	0.807797
4	9	2	1	0.248870
4	9	2	2	0.295725
4	9	3	1	0.250401
4	9	3	2	0.298951
4	9	4	1	0.257070
4	9	4	2	0.306247
4	9	5	1	0.568043
4	9	5	2	1.296180
4	5	1	1	0.479240
4	5	1	2	0.978767
4	5	2	1	0.257070
4	5	2	2	0.306247
4	5	3	1	0.264683
4	5	3	2	0.323750
4	5	4	1	0.251580
4	5	4	2	0.295478
4	5	5	1	0.568043
4	5	5	2	1.296180
4	1	1	1	0.390210
4	1	1	2	0.680469
4	1	2	1	0.306076
4	1	2	2	0.427793
4	1	3	1	0.295088
4	1	3	2	0.364835
4	1	4	1	0.264155
4	1	4	2	0.321560
4	1	5	1	0.435957
4	1	5	2	0.830744
4	8	1	1	0.422358
4	8	1	2	0.785344
4	8	2	1	0.247870
4	8	2	2	0.289292
4	8	3	1	0.250401
4	8	3	2	0.298951
4	8	4	1	0.248895
4	8	4	2	0.290842
4	8	5	1	0.360770
4	8	5	2	0.587924
5	9	1	1	0.378104
5	9	1	2	0.641971
5	9	2	1	0.279143
5	9	2	2	0.357106
5	9	3	1	0.260803
5	9	3	2	0.317588
5	9	4	1	0.259262
5	9	4	2	0.310848
5	9	5	1	0.559473
5	9	5	2	1.264864
5	1	1	1	0.396426
5	1	1	2	0.700458
5	1	2	1	0.306076
5	1	2	2	0.427793
5	1	3	1	0.304119
5	1	3	2	0.375426
5	1	4	1	0.248895
5	1	4	2	0.290842
5	1	5	1	0.429105
5	1	5	2	0.807797
5	8	1	1	0.510132
5	8	1	2	1.087298
5	8	2	1	0.246504
5	8	2	2	0.287741
5	8	3	1	0.295088
5	8	3	2	0.364835
5	8	4	1	0.257070
5	8	4	2	0.306247
5	8	5	1	0.366437
5	8	5	2	0.605446
5	3	1	1	0.518107
5	3	1	2	1.115662
5	3	2	1	0.259262
5	3	2	2	0.310848
5	3	3	1	0.326472
5	3	3	2	0.399619
5	3	4	1	0.246870
5	3	4	2	0.290921
5	3	5	1	0.526181
5	3	5	2	1.144518
5	7	1	1	0.435957
5	7	1	2	0.830744
5	7	2	1	0.269695
5	7	2	2	0.334278
5	7	3	1	0.397708
5	7	3	2	0.465383
5	7	4	1	0.275847
5	7	4	2	0.348998
5	7	5	1	0.360770
5	7	5	2	0.587924
5	6	1	1	0.502258
5	6	1	2	1.059427
5	6	2	1	0.261626
5	6	2	2	0.315953
5	6	3	1	0.314502
5	6	3	2	0.386980
5	6	4	1	0.272696
5	6	4	2	0.341388
5	6	5	1	0.396426
5	6	5	2	0.700458
5	2	1	1	0.429105
5	2	1	2	0.807797
5	2	2	1	0.246131
5	2	2	2	0.288274
5	2	3	1	0.287219
5	2	3	2	0.355115
5	2	4	1	0.293733
5	2	4	2	0.394518
5	2	5	1	0.502258
5	2	5	2	1.059427
5	10	1	1	0.518107
5	10	1	2	1.115662
5	10	2	1	0.279143
5	10	2	2	0.357106
5	10	3	1	0.274382
5	10	3	2	0.338023
5	10	4	1	0.253223
5	10	4	2	0.298561
5	10	5	1	0.518107
5	10	5	2	1.115662
5	4	1	1	0.471770
5	4	1	2	0.952865
5	4	2	1	0.289880
5	4	2	2	0.384419
5	4	3	1	0.269185
5	4	3	2	0.330552
5	4	4	1	0.253223
5	4	4	2	0.298561
5	4	5	1	0.360770
5	4	5	2	0.587924
6	10	1	1	0.542629
6	10	1	2	1.203706
6	10	2	1	0.310446
6	10	2	2	0.439877
6	10	3	1	0.269185
6	10	3	2	0.330552
6	10	4	1	0.289880
6	10	4	2	0.384419
6	10	5	1	0.471770
6	10	5	2	0.952865
6	7	1	1	0.551002
6	7	1	2	1.234039
6	7	2	1	0.248895
6	7	2	2	0.290842
6	7	3	1	0.456768
6	7	3	2	0.513825
6	7	4	1	0.248895
6	7	4	2	0.290842
6	7	5	1	0.464402
6	7	5	2	0.927456
6	4	1	1	0.486811
6	4	1	2	1.005161
6	4	2	1	0.253223
6	4	2	2	0.298561
6	4	3	1	0.326472
6	4	3	2	0.399619
6	4	4	1	0.246504
6	4	4	2	0.287741
6	4	5	1	0.510132
6	4	5	2	1.087298
6	2	1	1	0.486811
6	2	1	2	1.005161
6	2	2	1	0.246870
6	2	2	2	0.290921
6	2	3	1	0.287219
6	2	3	2	0.355115
6	2	4	1	0.301833
6	2	4	2	0.416205
6	2	5	1	0.449973
6	2	5	2	0.878115
6	3	1	1	0.449973
6	3	1	2	0.878115
6	3	2	1	0.261626
6	3	2	2	0.315953
6	3	3	1	0.254672
6	3	3	2	0.307099
6	3	4	1	0.247870
6	3	4	2	0.289292
6	3	5	1	0.568043
6	3	5	2	1.296180
6	5	1	1	0.542629
6	5	1	2	1.203706
6	5	2	1	0.310446
6	5	2	2	0.439877
6	5	3	1	0.287219
6	5	3	2	0.355115
6	5	4	1	0.266846
6	5	4	2	0.327669
6	5	5	1	0.435957
6	5	5	2	0.830744
6	9	1	1	0.464402
6	9	1	2	0.927456
6	9	2	1	0.301833
6	9	2	2	0.416205
6	9	3	1	0.248870
6	9	3	2	0.295725
6	9	4	1	0.272696
6	9	4	2	0.341388
6	9	5	1	0.494484
6	9	5	2	1.032048
6	1	1	1	0.534355
6	1	1	2	1.173866
6	1	2	1	0.301833
6	1	2	2	0.416205
6	1	3	1	0.269185
6	1	3	2	0.330552
6	1	4	1	0.264155
6	1	4	2	0.321560
6	1	5	1	0.486811
6	1	5	2	1.005161
6	8	1	1	0.526181
6	8	1	2	1.144518
6	8	2	1	0.246187
6	8	2	2	0.287745
6	8	3	1	0.314502
6	8	3	2	0.386980
6	8	4	1	0.275847
6	8	4	2	0.348998
6	8	5	1	0.449973
6	8	5	2	0.878115
7	2	1	1	0.457136
7	2	1	2	0.902539
7	2	2	1	0.297717
7	2	2	2	0.405114
7	2	3	1	0.254672
7	2	3	2	0.307099
7	2	4	1	0.266846
7	2	4	2	0.327669
7	2	5	1	0.576712
7	2	5	2	1.327989
7	6	1	1	0.510132
7	6	1	2	1.087298
7	6	2	1	0.275847
7	6	2	2	0.348998
7	6	3	1	0.340328
7	6	3	2	0.413505
7	6	4	1	0.246353
7	6	4	2	0.289331
7	6	5	1	0.510132
7	6	5	2	1.087298
7	3	1	1	0.372215
7	3	1	2	0.623462
7	3	2	1	0.264155
7	3	2	2	0.321560
7	3	3	1	0.295088
7	3	3	2	0.364835
7	3	4	1	0.250135
7	3	4	2	0.292905
7	3	5	1	0.542629
7	3	5	2	1.203706
7	10	1	1	0.409180
7	10	1	2	0.741915
7	10	2	1	0.272696
7	10	2	2	0.341388
7	10	3	1	0.456768
7	10	3	2	0.513825
7	10	4	1	0.246353
7	10	4	2	0.289331
7	10	5	1	0.464402
7	10	5	2	0.927456
7	4	1	1	0.568043
7	4	1	2	1.296180
7	4	2	1	0.257070
7	4	2	2	0.306247
7	4	3	1	0.250401
7	4	3	2	0.298951
7	4	4	1	0.247702
7	4	4	2	0.293050
7	4	5	1	0.442913
7	4	5	2	0.854183
7	5	1	1	0.402749
7	5	1	2	0.720940
7	5	2	1	0.246131
7	5	2	2	0.288274
7	5	3	1	0.280358
7	5	3	2	0.346196
7	5	4	1	0.255055
7	5	4	2	0.302151
7	5	5	1	0.435957
7	5	5	2	0.830744
7	9	1	1	0.457136
7	9	1	2	0.902539
7	9	2	1	0.248895
7	9	2	2	0.290842
7	9	3	1	0.248870
7	9	3	2	0.295725
7	9	4	1	0.275847
7	9	4	2	0.348998
7	9	5	1	0.526181
7	9	5	2	1.144518
7	1	1	1	0.384103
7	1	1	2	0.660973
7	1	2	1	0.286163
7	1	2	2	0.374817
7	1	3	1	0.250401
7	1	3	2	0.298951
7	1	4	1	0.282583
7	1	4	2	0.365713
7	1	5	1	0.390210
7	1	5	2	0.680469
7	8	1	1	0.360770
7	8	1	2	0.587924
7	8	2	1	0.289880
7	8	2	2	0.384419
7	8	3	1	0.260803
7	8	3	2	0.317588
7	8	4	1	0.250135
7	8	4	2	0.292905
7	8	5	1	0.534355
7	8	5	2	1.173866
8	1	1	1	0.384103
8	1	1	2	0.660973
8	1	2	1	0.282583
8	1	2	2	0.365713
8	1	3	1	0.269185
8	1	3	2	0.330552
8	1	4	1	0.286163
8	1	4	2	0.374817
8	1	5	1	0.576712
8	1	5	2	1.327989
8	5	1	1	0.384103
8	5	1	2	0.660973
8	5	2	1	0.297717
8	5	2	2	0.405114
8	5	3	1	0.424417
8	5	3	2	0.487653
8	5	4	1	0.247069
8	5	4	2	0.288257
8	5	5	1	0.551002
8	5	5	2	1.234039
8	9	1	1	0.518107
8	9	1	2	1.115662
8	9	2	1	0.301833
8	9	2	2	0.416205
8	9	3	1	0.424417
8	9	3	2	0.487653
8	9	4	1	0.248895
8	9	4	2	0.290842
8	9	5	1	0.372215
8	9	5	2	0.623462
8	3	1	1	0.568043
8	3	1	2	1.296180
8	3	2	1	0.286163
8	3	2	2	0.374817
8	3	3	1	0.280358
8	3	3	2	0.346196
8	3	4	1	0.286163
8	3	4	2	0.374817
8	3	5	1	0.429105
8	3	5	2	0.807797
8	2	1	1	0.378104
8	2	1	2	0.641971
8	2	2	1	0.297717
8	2	2	2	0.405114
8	2	3	1	0.250401
8	2	3	2	0.298951
8	2	4	1	0.250135
8	2	4	2	0.292905
8	2	5	1	0.568043
8	2	5	2	1.296180
8	7	1	1	0.402749
8	7	1	2	0.720940
8	7	2	1	0.255055
8	7	2	2	0.302151
8	7	3	1	0.269185
8	7	3	2	0.330552
8	7	4	1	0.306076
8	7	4	2	0.427793
8	7	5	1	0.402749
8	7	5	2	0.720940
8	6	1	1	0.396426
8	6	1	2	0.700458
8	6	2	1	0.247702
8	6	2	2	0.293050
8	6	3	1	0.424417
8	6	3	2	0.487653
8	6	4	1	0.246131
8	6	4	2	0.288274
8	6	5	1	0.551002
8	6	5	2	1.234039
8	10	1	1	0.542629
8	10	1	2	1.203706
8	10	2	1	0.306076
8	10	2	2	0.427793
8	10	3	1	0.326472
8	10	3	2	0.399619
8	10	4	1	0.266846
8	10	4	2	0.327669
8	10	5	1	0.429105
8	10	5	2	0.807797
8	4	1	1	0.510132
8	4	1	2	1.087298
8	4	2	1	0.279143
8	4	2	2	0.357106
8	4	3	1	0.274382
8	4	3	2	0.338023
8	4	4	1	0.248870
8	4	4	2	0.295725
8	4	5	1	0.360770
8	4	5	2	0.587924
9	5	1	1	0.559473
9	5	1	2	1.264864
9	5	2	1	0.275847
9	5	2	2	0.348998
9	5	3	1	0.252324
9	5	3	2	0.302739
9	5	4	1	0.257070
9	5	4	2	0.306247
9	5	5	1	0.457136
9	5	5	2	0.902539
9	1	1	1	0.559473
9	1	1	2	1.264864
9	1	2	1	0.306076
9	1	2	2	0.427793
9	1	3	1	0.304119
9	1	3	2	0.375426
9	1	4	1	0.247702
9	1	4	2	0.293050
9	1	5	1	0.486811
9	1	5	2	1.005161
9	8	1	1	0.502258
9	8	1	2	1.059427
9	8	2	1	0.282583
9	8	2	2	0.365713
9	8	3	1	0.340328
9	8	3	2	0.413505
9	8	4	1	0.272696
9	8	4	2	0.341388
9	8	5	1	0.366437
9	8	5	2	0.605446
9	3	1	1	0.471770
9	3	1	2	0.952865
9	3	2	1	0.246187
9	3	2	2	0.287745
9	3	3	1	0.269185
9	3	3	2	0.330552
9	3	4	1	0.310446
9	3	4	2	0.439877
9	3	5	1	0.415716
9	3	5	2	0.763383
9	7	1	1	0.396426
9	7	1	2	0.700458
9	7	2	1	0.246353
9	7	2	2	0.289331
9	7	3	1	0.375359
9	7	3	2	0.446007
9	7	4	1	0.266846
9	7	4	2	0.327669
9	7	5	1	0.422358
9	7	5	2	0.785344
9	6	1	1	0.384103
9	6	1	2	0.660973
9	6	2	1	0.266846
9	6	2	2	0.327669
9	6	3	1	0.269185
9	6	3	2	0.330552
9	6	4	1	0.248870
9	6	4	2	0.295725
9	6	5	1	0.518107
9	6	5	2	1.115662
9	2	1	1	0.526181
9	2	1	2	1.144518
9	2	2	1	0.272696
9	2	2	2	0.341388
9	2	3	1	0.424417
9	2	3	2	0.487653
9	2	4	1	0.275847
9	2	4	2	0.348998
9	2	5	1	0.559473
9	2	5	2	1.264864
9	4	1	1	0.372215
9	4	1	2	0.623462
9	4	2	1	0.301833
9	4	2	2	0.416205
9	4	3	1	0.274382
9	4	3	2	0.338023
9	4	4	1	0.297717
9	4	4	2	0.405114
9	4	5	1	0.568043
9	4	5	2	1.296180
9	10	1	1	0.486811
9	10	1	2	1.005161
9	10	2	1	0.310446
9	10	2	2	0.439877
9	10	3	1	0.340328
9	10	3	2	0.413505
9	10	4	1	0.246504
9	10	4	2	0.287741
9	10	5	1	0.486811
9	10	5	2	1.005161
10	4	1	1	0.384103
10	4	1	2	0.660973
10	4	2	1	0.275847
10	4	2	2	0.348998
10	4	3	1	0.456768
10	4	3	2	0.513825
10	4	4	1	0.247069
10	4	4	2	0.288257
10	4	5	1	0.479240
10	4	5	2	0.978767
10	6	1	1	0.542629
10	6	1	2	1.203706
10	6	2	1	0.261626
10	6	2	2	0.315953
10	6	3	1	0.424417
10	6	3	2	0.487653
10	6	4	1	0.247069
10	6	4	2	0.288257
10	6	5	1	0.449973
10	6	5	2	0.878115
10	2	1	1	0.576712
10	2	1	2	1.327989
10	2	2	1	0.259262
10	2	2	2	0.310848
10	2	3	1	0.250401
10	2	3	2	0.298951
10	2	4	1	0.246870
10	2	4	2	0.290921
10	2	5	1	0.378104
10	2	5	2	0.641971
10	7	1	1	0.502258
10	7	1	2	1.059427
10	7	2	1	0.246504
10	7	2	2	0.287741
10	7	3	1	0.252324
10	7	3	2	0.302739
10	7	4	1	0.259262
10	7	4	2	0.310848
10	7	5	1	0.526181
10	7	5	2	1.144518
10	3	1	1	0.526181
10	3	1	2	1.144518
10	3	2	1	0.266846
10	3	2	2	0.327669
10	3	3	1	0.257483
10	3	3	2	0.312044
10	3	4	1	0.246870
10	3	4	2	0.290921
10	3	5	1	0.442913
10	3	5	2	0.854183
10	5	1	1	0.449973
10	5	1	2	0.878115
10	5	2	1	0.275847
10	5	2	2	0.348998
10	5	3	1	0.280358
10	5	3	2	0.346196
10	5	4	1	0.255055
10	5	4	2	0.302151
10	5	5	1	0.559473
10	5	5	2	1.264864
10	9	1	1	0.464402
10	9	1	2	0.927456
10	9	2	1	0.246870
10	9	2	2	0.290921
10	9	3	1	0.375359
10	9	3	2	0.446007
10	9	4	1	0.264155
10	9	4	2	0.321560
10	9	5	1	0.422358
10	9	5	2	0.785344
10	1	1	1	0.384103
10	1	1	2	0.660973
10	1	2	1	0.246353
10	1	2	2	0.289331
10	1	3	1	0.248870
10	1	3	2	0.295725
10	1	4	1	0.247069
10	1	4	2	0.288257
10	1	5	1	0.442913
10	1	5	2	0.854183
10	8	1	1	0.360770
10	8	1	2	0.587924
10	8	2	1	0.269695
10	8	2	2	0.334278
10	8	3	1	0.424417
10	8	3	2	0.487653
10	8	4	1	0.286163
10	8	4	2	0.374817
10	8	5	1	0.542629
10	8	5	2	1.203706
0	3	1	1	0.415716
0	3	1	2	0.763383
0	3	2	1	0.306076
0	3	2	2	0.427793
0	3	3	1	0.257483
0	3	3	2	0.312044
0	3	4	1	0.306076
0	3	4	2	0.427793
0	3	5	1	0.568043
0	3	5	2	1.296180
0	2	1	1	0.576712
0	2	1	2	1.327989
0	2	2	1	0.279143
0	2	2	2	0.357106
0	2	3	1	0.287219
0	2	3	2	0.355115
0	2	4	1	0.279143
0	2	4	2	0.357106
0	2	5	1	0.372215
0	2	5	2	0.623462
0	7	1	1	0.390210
0	7	1	2	0.680469
0	7	2	1	0.247069
0	7	2	2	0.288257
0	7	3	1	0.248870
0	7	3	2	0.295725
0	7	4	1	0.272696
0	7	4	2	0.341388
0	7	5	1	0.568043
0	7	5	2	1.296180
0	6	1	1	0.518107
0	6	1	2	1.115662
0	6	2	1	0.279143
0	6	2	2	0.357106
0	6	3	1	0.375359
0	6	3	2	0.446007
0	6	4	1	0.261626
0	6	4	2	0.315953
0	6	5	1	0.559473
0	6	5	2	1.264864
0	8	1	1	0.449973
0	8	1	2	0.878115
0	8	2	1	0.261626
0	8	2	2	0.315953
0	8	3	1	0.280358
0	8	3	2	0.346196
0	8	4	1	0.279143
0	8	4	2	0.357106
0	8	5	1	0.542629
0	8	5	2	1.203706
0	10	1	1	0.442913
0	10	1	2	0.854183
0	10	2	1	0.247069
0	10	2	2	0.288257
0	10	3	1	0.254672
0	10	3	2	0.307099
0	10	4	1	0.282583
0	10	4	2	0.365713
0	10	5	1	0.435957
0	10	5	2	0.830744
0	5	1	1	0.372215
0	5	1	2	0.623462
0	5	2	1	0.289880
0	5	2	2	0.384419
0	5	3	1	0.260803
0	5	3	2	0.317588
0	5	4	1	0.279143
0	5	4	2	0.357106
0	5	5	1	0.502258
0	5	5	2	1.059427
0	1	1	1	0.457136
0	1	1	2	0.902539
0	1	2	1	0.266846
0	1	2	2	0.327669
0	1	3	1	0.252324
0	1	3	2	0.302739
0	1	4	1	0.248895
0	1	4	2	0.290842
0	1	5	1	0.402749
0	1	5	2	0.720940
0	9	1	1	0.457136
0	9	1	2	0.902539
0	9	2	1	0.247870
0	9	2	2	0.289292
0	9	3	1	0.375359
0	9	3	2	0.446007
0	9	4	1	0.261626
0	9	4	2	0.315953
0	9	5	1	0.502258
0	9	5	2	1.059427
0	4	1	1	0.390210
0	4	1	2	0.680469
0	4	2	1	0.286163
0	4	2	2	0.374817
0	4	3	1	0.269185
0	4	3	2	0.330552
0	4	4	1	0.247702
0	4	4	2	0.293050
0	4	5	1	0.551002
0	4	5	2	1.234039
3	0	1	1	0.464402
3	0	1	2	0.927456
3	0	2	1	0.247069
3	0	2	2	0.288257
3	0	3	1	0.326472
3	0	3	2	0.399619
3	0	4	1	0.246353
3	0	4	2	0.289331
3	0	5	1	0.486811
3	0	5	2	1.005161
2	0	1	1	0.526181
2	0	1	2	1.144518
2	0	2	1	0.246353
2	0	2	2	0.289331
2	0	3	1	0.264683
2	0	3	2	0.323750
2	0	4	1	0.261626
2	0	4	2	0.315953
2	0	5	1	0.534355
2	0	5	2	1.173866
7	0	1	1	0.494484
7	0	1	2	1.032048
7	0	2	1	0.297717
7	0	2	2	0.405114
7	0	3	1	0.260803
7	0	3	2	0.317588
7	0	4	1	0.259262
7	0	4	2	0.310848
7	0	5	1	0.396426
7	0	5	2	0.700458
6	0	1	1	0.457136
6	0	1	2	0.902539
6	0	2	1	0.247870
6	0	2	2	0.289292
6	0	3	1	0.397708
6	0	3	2	0.465383
6	0	4	1	0.301833
6	0	4	2	0.416205
6	0	5	1	0.494484
6	0	5	2	1.032048
8	0	1	1	0.494484
8	0	1	2	1.032048
8	0	2	1	0.310446
8	0	2	2	0.439877
8	0	3	1	0.456768
8	0	3	2	0.513825
8	0	4	1	0.306076
8	0	4	2	0.427793
8	0	5	1	0.390210
8	0	5	2	0.680469
10	0	1	1	0.542629
10	0	1	2	1.203706
10	0	2	1	0.246870
10	0	2	2	0.290921
10	0	3	1	0.295088
10	0	3	2	0.364835
10	0	4	1	0.246870
10	0	4	2	0.290921
10	0	5	1	0.409180
10	0	5	2	0.741915
5	0	1	1	0.559473
5	0	1	2	1.264864
5	0	2	1	0.246504
5	0	2	2	0.287741
5	0	3	1	0.314502
5	0	3	2	0.386980
5	0	4	1	0.275847
5	0	4	2	0.348998
5	0	5	1	0.542629
5	0	5	2	1.203706
1	0	1	1	0.422358
1	0	1	2	0.785344
1	0	2	1	0.247069
1	0	2	2	0.288257
1	0	3	1	0.375359
1	0	3	2	0.446007
1	0	4	1	0.286163
1	0	4	2	0.374817
1	0	5	1	0.576712
1	0	5	2	1.327989
9	0	1	1	0.442913
9	0	1	2	0.854183
9	0	2	1	0.250135
9	0	2	2	0.292905
9	0	3	1	0.397708
9	0	3	2	0.465383
9	0	4	1	0.246504
9	0	4	2	0.287741
9	0	5	1	0.471770
9	0	5	2	0.952865
4	0	1	1	0.510132
4	0	1	2	1.087298
4	0	2	1	0.264155
4	0	2	2	0.321560
4	0	3	1	0.340328
4	0	3	2	0.413505
4	0	4	1	0.248895
4	0	4	2	0.290842
4	0	5	1	0.471770
4	0	5	2	0.952865
;
